
Gurobi 10.0.1 (win64) logging started Tue Sep 19 06:54:45 2023

Set parameter LogFile to value "./results//log/FTQL_makespan.log"
Gurobi Optimizer version 10.0.1 build v10.0.1rc0 (win64)

CPU model: AMD Ryzen 7 3700X 8-Core Processor, instruction set [SSE2|AVX|AVX2]
Thread count: 8 physical cores, 16 logical processors, using up to 16 threads

Optimize a model with 195 rows, 625 columns and 664 nonzeros
Model fingerprint: 0xca7183ca
Variable types: 24 continuous, 601 integer (600 binary)
Coefficient statistics:
  Matrix range     [1e+00, 4e+04]
  Objective range  [1e+00, 1e+00]
  Bounds range     [1e+00, 1e+00]
  RHS range        [1e+00, 1e+05]
Presolve removed 80 rows and 553 columns
Presolve time: 0.01s
Presolved: 115 rows, 72 columns, 328 nonzeros
Variable types: 24 continuous, 48 integer (47 binary)
Found heuristic solution: objective 116151.00000
Found heuristic solution: objective 110231.00000
Found heuristic solution: objective 107511.00000

Root relaxation: objective 5.387900e+04, 36 iterations, 0.00 seconds (0.00 work units)

    Nodes    |    Current Node    |     Objective Bounds      |     Work
 Expl Unexpl |  Obj  Depth IntInf | Incumbent    BestBd   Gap | It/Node Time

     0     0 53879.0000    0   24 107511.000 53879.0000  49.9%     -    0s
H    0     0                    90146.000000 53879.0000  40.2%     -    0s
H    0     0                    88866.000000 53879.0000  39.4%     -    0s
H    0     0                    87121.000000 53879.0000  38.2%     -    0s
H    0     0                    84481.000000 53879.0000  36.2%     -    0s
H    0     0                    83467.000000 53879.0000  35.4%     -    0s
     0     0 64720.0000    0   18 83467.0000 64720.0000  22.5%     -    0s
H    0     0                    83444.000000 64720.0000  22.4%     -    0s
H    0     0                    83167.000000 64720.0000  22.2%     -    0s
H    0     0                    81985.000000 64720.0000  21.1%     -    0s
     0     0 64720.0000    0   15 81985.0000 64720.0000  21.1%     -    0s
     0     0 64720.0000    0   18 81985.0000 64720.0000  21.1%     -    0s
H    0     0                    80506.000000 64720.0000  19.6%     -    0s
H    0     0                    80148.000000 64720.0000  19.2%     -    0s
     0     0 64720.0000    0   14 80148.0000 64720.0000  19.2%     -    0s
     0     0 64720.0000    0    6 80148.0000 64720.0000  19.2%     -    0s
H    0     0                    80147.000000 64720.0000  19.2%     -    0s
H    0     0                    80145.000000 64720.0000  19.2%     -    0s
H    0     0                    75418.000000 64720.0000  14.2%     -    0s
     0     0 64720.0000    0   14 75418.0000 64720.0000  14.2%     -    0s
     0     0 64720.0000    0   13 75418.0000 64720.0000  14.2%     -    0s
     0     0 64720.0000    0   15 75418.0000 64720.0000  14.2%     -    0s
     0     0 64720.0000    0   16 75418.0000 64720.0000  14.2%     -    0s
     0     0 64732.0000    0   13 75418.0000 64732.0000  14.2%     -    0s
H    0     0                    75335.000000 64732.0000  14.1%     -    0s
     0     2 64732.0000    0   11 75335.0000 64732.0000  14.1%     -    0s
H   87    31                    74729.000000 64732.0000  13.4%  15.4    0s
H  122    35                    74452.000000 64732.0000  13.1%  12.7    0s

Cutting planes:
  Gomory: 14
  Implied bound: 15
  MIR: 59
  Inf proof: 1
  RLT: 22
  Relax-and-lift: 12

Explored 1246 nodes (9828 simplex iterations) in 0.15 seconds (0.08 work units)
Thread count was 16 (of 16 available processors)

Solution count 10: 74452 74452 74729 ... 81985

Optimal solution found (tolerance 1.00e-04)
Best objective 7.445200000000e+04, best bound 7.445200000000e+04, gap 0.0000%
Warning: constraint name "precedence between 1,1 to 0,0 if x_[0,0,1,1,1]=1, i.e. 0,0 before 1,1" has a space
Warning: constraint name "precedence between 1,1 to 0,0 if x_[0,0,1,1,1]=1, i.e. 0,0 before 1,1" has a space
Warning: default constraint names used to write mps file
